(set-logic UFDT)
(declare-datatypes ((nat 0)) (((zero) (s (s0 nat)))))
(declare-fun add (nat nat) nat)
(non-erasing add 2)
(injective add (true true))
(declare-fun leq (nat nat) Bool)
(assert (forall ((y nat)) (= (add zero y) y)))
(assert (forall ((x nat) (y nat)) (= (add (s x) y) (s (add x y)))))
(assert (forall ((y nat)) (leq zero y)))
(assert (forall ((x nat)) (not (leq (s x) zero))))
(assert (forall ((x nat) (y nat)) (= (leq (s x) (s y)) (leq x y))))
(assert (not (forall ((v0 nat) (v1 nat) (v2 nat) (v3 nat) (v4 nat) (v5 nat) (v6 nat) (v7 nat)) (= (add (s (s (s (add (add (s v3) v7) (s (add (add v5 (s v1)) (add (s (s (add (s v2) (add (add (s v4) v6) v0)))) (s (s (s v0)))))))))) (s v7)) (add (add (add v6 (add (s (s (add v0 v3))) v4)) (s (add (s (s (s (s (add v1 (add (s (s (s v5))) (s (s v7)))))))) (add (s v2) v7)))) (s v0))))))
(check-sat)
